log log-Cu_Cu_E_out_Sigma_3_111.lammps
units metal
atom_style atomic
dimension 3
boundary p p p
variable a equal 3.615
variable xcsl equal 1.73205080757
variable ycsl equal 0.707106781187
variable zcsl equal 1.22474487139
variable nx equal 10
variable ny equal 5
variable nz equal 5
variable xdim equal ${a}*${nx}*${xcsl}
variable ydim equal ${a}*${ny}*${ycsl}
variable zdim equal ${a}*${nz}*${zcsl}
variable xlo equal -${xdim}/2
variable xhi equal ${xdim}/2
variable ylo equal -${ydim}/2
variable yhi equal ${ydim}/2
variable zlo equal -${zdim}/2
variable zhi equal ${zdim}/2
region total block ${xlo} ${xhi} ${ylo} ${yhi} ${zlo} ${zhi}
create_box 1 total
pair_style eam/alloy
pair_coeff * * Cu.eam Cu
region grain1 block ${xlo} -0.001 ${ylo} ${yhi} ${zlo} ${zhi}
lattice fcc 3.615 orient x 1 1 1 orient y 1 -1 0 orient z 1 1 -2
create_atoms 1 region grain1
region grain2 intersect 2 total grain1 side out
lattice fcc 3.615 orient x 1 1 1 orient y -1 1 0 orient z -1 -1 2
create_atoms 1 region grain2
delete_atoms overlap 1.64 all all
compute eng all pe/atom
compute eatoms all reduce sum c_eng
compute MinAtomEnergy all reduce min c_eng
compute csym all centro/atom fcc
thermo_style    custom step lx ly lz press pxx pyy pzz c_eatoms c_MinAtomEnergy
thermo                  1000
min_style cg
minimize 1.0e-8 1.0e-10 10000 10000
fix 1 all box/relax x 0.1 y 0.1 z 0.1
min_style cg
minimize 1e-8 1e-10 10000 10000
variable Eo equal -3.540*atoms
variable Ef equal "c_eatoms"
variable Cf equal 1.60217657e-16
variable A equal (${ydim}*${zdim}*1e-20)
variable GBE equal ((${Ef}-${Eo})*${Cf})/(2*${A})
print "GB energy is ${GBE} mJ/m^2"
dump dump1 all custom 1 Cu_0K_0.dump id type x y z c_eng c_csym
run 1
unfix 1
undump dump1